Route #1: 15 8 17 42 21
Route #2: 1 28 29 19 32
Route #3: 16 47 26 18 4 25
Route #4: 24 5 39
Route #5: 10 35 45 41 23 46
Route #6: 3 13 22 38 14 30 31
Route #7: 6 20 36 11 43 49 33 9 44
Route #8: 34 48 40 7 37 27 12 2
Cost 1337